\ This file has been generated by DOcplex
\ ENCODING=ISO-8859-1
\Problem name: Orandom1742_6.lp

Minimize
 obj: - 32.000005790328 x0 - 16.000002895164 x1 - 8.000001447582 x2
      - 32.000005790328 x3 - 16.000002895164 x4 - 8.000001447582 x5 + [
      80.000003308759 x0^2 + 80.000003308759 x0*x1 + 40.000001654379 x0*x2
      + 32.000006617518 x0*x3 + 16.000003308759 x0*x4 + 8.000001654379 x0*x5
      + 20.000000827190 x1^2 + 20.000000827190 x1*x2 + 16.000003308759 x1*x3
      + 8.000001654379 x1*x4 + 4.000000827190 x1*x5 + 5.000000206797 x2^2
      + 8.000001654379 x2*x3 + 4.000000827190 x2*x4 + 2.000000413595 x2*x5
      + 16.000003308759 x3^2 + 16.000003308759 x3*x4 + 8.000001654379 x3*x5
      + 4.000000827190 x4^2 + 4.000000827190 x4*x5 + 1.000000206797 x5^2 ]/2 +
      24.500005066537
Subject To

Bounds
 0 <= x0 <= 1
 0 <= x1 <= 1
 0 <= x2 <= 1
 0 <= x3 <= 1
 0 <= x4 <= 1
 0 <= x5 <= 1

Binaries
 x0 x1 x2 x3 x4 x5
End
